p cnf 128 456
3 -1 0
3 2 0
1 -2 -3 0
-6 -5 0
-6 -1 0
5 1 6 0
4 6 -7 0
-4 -6 -7 0
4 -6 7 0
-4 6 7 0
-8 -6 0
-8 1 0
6 -1 8 0
-9 -7 0
-9 -8 0
7 8 9 0
-10 -3 0
-10 9 0
3 -9 10 0
13 -11 0
13 12 0
11 -12 -13 0
-16 -14 0
-16 15 0
14 -15 16 0
-17 -16 0
-17 -15 0
16 15 17 0
-18 13 0
-18 17 0
-13 -17 18 0
-19 18 0
-19 -4 0
-18 4 19 0
-20 10 0
-20 19 0
-10 -19 20 0
-22 -21 0
-22 15 0
21 -15 22 0
23 -11 0
23 -5 0
11 5 -23 0
-24 23 0
-24 2 0
-23 -2 24 0
25 -24 0
25 24 0
26 25 0
26 -7 0
-25 7 -26 0
-22 -26 -27 0
22 26 -27 0
-22 26 27 0
22 -26 27 0
-28 -2 0
-28 27 0
2 -27 28 0
-29 -20 0
-29 -28 0
20 28 29 0
-31 30 0
-31 -17 0
-30 17 31 0
33 32 0
33 -30 0
-32 30 -33 0
-1 -32 -34 0
1 32 -34 0
-1 32 34 0
1 -32 34 0
35 -33 0
35 -34 0
33 34 -35 0
36 35 0
36 24 0
-35 -24 -36 0
7 -14 -37 0
-7 14 -37 0
7 14 37 0
-7 -14 37 0
-36 37 -38 0
36 -37 -38 0
-36 -37 38 0
36 37 38 0
38 5 -39 0
-38 -5 -39 0
38 -5 39 0
-38 5 39 0
-40 -23 0
-40 -3 0
23 3 40 0
-41 7 0
-41 -40 0
-7 40 41 0
41 40 -42 0
-41 -40 -42 0
41 -40 42 0
-41 40 42 0
-43 3 0
-43 -12 0
-3 12 43 0
-30 43 -44 0
30 -43 -44 0
-30 -43 44 0
30 43 44 0
-13 44 -45 0
13 -44 -45 0
-13 -44 45 0
13 44 45 0
46 42 0
46 45 0
-42 -45 -46 0
-47 39 0
-47 46 0
-39 -46 47 0
-12 -13 -48 0
12 13 -48 0
-12 13 48 0
12 -13 48 0
-49 1 0
-49 -43 0
-1 43 49 0
23 50 -51 0
-23 -50 -51 0
23 -50 51 0
-23 50 51 0
34 -51 -52 0
-34 51 -52 0
34 51 52 0
-34 -51 52 0
53 -49 0
53 52 0
49 -52 -53 0
-48 53 -54 0
48 -53 -54 0
-48 -53 54 0
48 53 54 0
55 47 0
55 54 0
-47 -54 -55 0
56 23 0
56 -2 0
-23 2 -56 0
-57 55 0
-57 -56 0
-55 56 57 0
22 5 -58 0
-22 -5 -58 0
22 -5 58 0
-22 5 58 0
58 25 -59 0
-58 -25 -59 0
58 -25 59 0
-58 25 59 0
11 14 -60 0
-11 -14 -60 0
11 -14 60 0
-11 14 60 0
61 59 0
61 -60 0
-59 60 -61 0
62 57 0
62 61 0
-57 -61 -62 0
23 33 -63 0
-23 -33 -63 0
23 -33 63 0
-23 33 63 0
-64 16 0
-64 -63 0
-16 63 64 0
-65 -62 0
-65 -64 0
62 64 65 0
-31 -65 -66 0
31 65 -66 0
-31 65 66 0
31 -65 66 0
67 -29 0
67 -66 0
29 66 -67 0
-68 37 0
-68 -45 0
-37 45 68 0
-14 30 -69 0
14 -30 -69 0
-14 -30 69 0
14 30 69 0
-71 -70 0
-71 -16 0
70 16 71 0
72 -69 0
72 71 0
69 -71 -72 0
-73 25 0
-73 72 0
-25 -72 73 0
-74 -7 0
-74 53 0
7 -53 74 0
75 -73 0
75 -74 0
73 74 -75 0
76 72 0
76 -26 0
-72 26 -76 0
77 -75 0
77 -76 0
75 76 -77 0
12 37 -78 0
-12 -37 -78 0
12 -37 78 0
-12 37 78 0
78 -34 -79 0
-78 34 -79 0
78 34 79 0
-78 -34 79 0
80 -79 0
80 -43 0
79 43 -80 0
81 -80 0
81 -14 0
80 14 -81 0
-82 -45 0
-82 16 0
45 -16 82 0
82 33 -83 0
-82 -33 -83 0
82 -33 83 0
-82 33 83 0
83 23 -84 0
-83 -23 -84 0
83 -23 84 0
-83 23 84 0
-85 81 0
-85 -84 0
-81 84 85 0
-86 80 -87 0
86 -80 -87 0
-86 -80 87 0
86 80 87 0
88 -85 0
88 87 0
85 -87 -88 0
77 -88 -89 0
-77 88 -89 0
77 88 89 0
-77 -88 89 0
-45 2 -90 0
45 -2 -90 0
-45 -2 90 0
45 2 90 0
91 -90 0
91 17 0
90 -17 -91 0
-89 -91 -92 0
89 91 -92 0
-89 91 92 0
89 -91 92 0
-93 -36 0
-93 -12 0
36 12 93 0
94 1 0
94 93 0
-1 -93 -94 0
92 -94 -95 0
-92 94 -95 0
92 94 95 0
-92 -94 95 0
-96 -68 0
-96 95 0
68 -95 96 0
97 63 0
97 -78 0
-63 78 -97 0
98 -25 0
98 -74 0
25 74 -98 0
25 -27 -99 0
-25 27 -99 0
25 27 99 0
-25 -27 99 0
100 -98 0
100 99 0
98 -99 -100 0
97 100 -101 0
-97 -100 -101 0
97 -100 101 0
-97 100 101 0
-102 72 0
-102 34 0
-72 -34 102 0
-103 51 0
-103 102 0
-51 -102 103 0
104 -103 0
104 27 0
103 -27 -104 0
105 -90 0
105 -41 0
90 41 -105 0
106 105 0
106 4 0
-105 -4 -106 0
-107 -104 0
-107 106 0
104 -106 107 0
1 14 -108 0
-1 -14 -108 0
1 -14 108 0
-1 14 108 0
-109 107 0
-109 108 0
-107 -108 109 0
-101 -109 -110 0
101 109 -110 0
-101 109 110 0
101 -109 110 0
21 37 -111 0
-21 -37 -111 0
21 -37 111 0
-21 37 111 0
1 -112 0
-1 -112 0
-16 112 -113 0
16 -112 -113 0
-16 -112 113 0
16 112 113 0
-111 113 -114 0
111 -113 -114 0
-111 -113 114 0
111 113 114 0
12 18 -115 0
-12 -18 -115 0
12 -18 115 0
-12 18 115 0
116 -114 0
116 -115 0
114 115 -116 0
-110 -116 -117 0
110 116 -117 0
-110 116 117 0
110 -116 117 0
-118 96 0
-118 -117 0
-96 117 118 0
119 -67 0
119 -118 0
67 118 -119 0
6 -73 -120 0
-6 73 -120 0
6 73 120 0
-6 -73 120 0
121 14 0
121 49 0
-14 -49 -121 0
-122 120 0
-122 121 0
-120 -121 122 0
123 45 0
123 -9 0
-45 9 -123 0
34 17 -124 0
-34 -17 -124 0
34 -17 124 0
-34 17 124 0
125 -70 0
125 -124 0
70 124 -125 0
126 -123 0
126 125 0
123 -125 -126 0
127 -122 0
127 -126 0
122 126 -127 0
128 119 0
128 127 0
-119 -127 -128 0
57 -62 112 -67 34 0
-47 -123 126 -104 0
113 88 0
55 -45 91 0
-85 -71 -99 0
70 -19 78 -11 0
111 101 -27 -79 104 0
12 -110 119 35 0
17 61 0
-124 -55 0
74 9 79 0
-23 59 49 -128 0
43 6 69 0
-37 -42 -68 123 79 89 0
2 26 99 -79 -89 100 0
128 -5 -101 94 75 0
96 -29 -41 0
-119 76 112 -48 36 86 0
-75 -115 -35 126 0
125 -90 72 94 -78 -54 0
77 -101 10 0
92 22 41 0
81 22 0
99 -115 -79 80 -41 40 0
76 -128 -34 -103 66 -84 0
-82 57 -56 -60 0
35 -117 62 -58 111 0
-60 103 56 73 27 0
-11 88 -85 0
65 -29 0
-68 -123 126 113 0
91 -85 -9 0
81 75 -28 0
-17 -19 98 -80 -108 0
35 -3 0
7 -1 110 0
82 -30 -34 35 0
-6 -52 91 -43 109 0
37 16 0
-83 -69 -103 0
-62 33 -43 -101 0
19 -56 95 32 0
52 -73 -62 -48 -34 -80 0
-118 -4 -121 0
107 -3 -32 -125 26 -79 0
-2 -82 0
27 42 28 91 83 0
48 95 0
-23 78 -14 -102 -126 0
59 -61 -74 0
-43 106 -69 85 13 -84 0
-127 75 -72 45 0
-57 -99 -73 72 98 105 0
61 -56 0
12 7 -58 3 19 0
64 -106 -77 88 0
-123 124 103 0
-45 114 52 64 -72 0
-5 -7 29 0
-117 -1 -11 -61 0
-44 65 48 0
64 -80 45 -53 71 48 0
-58 -82 -32 -73 -49 0
-7 105 0
17 -110 0
-36 115 75 -103 0
-10 -84 95 89 87 85 0
-38 125 0
12 3 -87 0
-65 95 0
27 -9 -63 0
122 12 105 -90 42 0
94 15 0
39 -65 -27 -122 68 0
61 -119 -14 105 -13 121 0
-122 100 -40 0
128 0
